experiments/knapsack_bounded/knapsack_bounded_25_8.mps
NAME
ROWS
 N  OBJ
 L  c1
 L  c2
 L  c3
 L  c4
 L  c5
 L  c6
 L  c7
 L  c8
 L  c9
 L  c10
 L  c11
 L  c12
 L  c13
 L  c14
 L  c15
 L  c16
 L  c17
 L  c18
 L  c19
 L  c20
 L  c21
 L  c22
 L  c23
 L  c24
 L  c25
 L  c26
COLUMNS
    MARKER    'MARKER'                 'INTORG'
    x[1]      c1        966
    x[1]      c2        1
    x[1]      OBJ       -496
    x[2]      c1        124
    x[2]      c3        1
    x[2]      OBJ       -952
    x[3]      c1        327
    x[3]      c4        1
    x[3]      OBJ       -748
    x[4]      c1        627
    x[4]      c5        1
    x[4]      OBJ       -965
    x[5]      c1        321
    x[5]      c6        1
    x[5]      OBJ       -568
    x[6]      c1        152
    x[6]      c7        1
    x[6]      OBJ       -623
    x[7]      c1        290
    x[7]      c8        1
    x[7]      OBJ       -772
    x[8]      c1        768
    x[8]      c9        1
    x[8]      OBJ       -711
    x[9]      c1        778
    x[9]      c10       1
    x[9]      OBJ       -901
    x[10]     c1        103
    x[10]     c11       1
    x[10]     OBJ       -458
    x[11]     c1        295
    x[11]     c12       1
    x[11]     OBJ       -703
    x[12]     c1        801
    x[12]     c13       1
    x[12]     OBJ       -490
    x[13]     c1        716
    x[13]     c14       1
    x[13]     OBJ       -87
    x[14]     c1        241
    x[14]     c15       1
    x[14]     OBJ       -789
    x[15]     c1        340
    x[15]     c16       1
    x[15]     OBJ       -42
    x[16]     c1        258
    x[16]     c17       1
    x[16]     OBJ       -203
    x[17]     c1        75
    x[17]     c18       1
    x[17]     OBJ       -787
    x[18]     c1        527
    x[18]     c19       1
    x[18]     OBJ       -800
    x[19]     c1        99
    x[19]     c20       1
    x[19]     OBJ       -247
    x[20]     c1        877
    x[20]     c21       1
    x[20]     OBJ       -35
    x[21]     c1        875
    x[21]     c22       1
    x[21]     OBJ       -445
    x[22]     c1        280
    x[22]     c23       1
    x[22]     OBJ       -116
    x[23]     c1        360
    x[23]     c24       1
    x[23]     OBJ       -150
    x[24]     c1        30
    x[24]     c25       1
    x[24]     OBJ       -562
    x[25]     c1        482
    x[25]     c26       1
    x[25]     OBJ       -278
    MARKER    'MARKER'                 'INTEND'
RHS
    rhs       c1        5356
    rhs       c2        9
    rhs       c3        8
    rhs       c4        2
    rhs       c5        5
    rhs       c6        1
    rhs       c7        1
    rhs       c8        3
    rhs       c9        4
    rhs       c10       9
    rhs       c11       2
    rhs       c12       10
    rhs       c13       2
    rhs       c14       8
    rhs       c15       3
    rhs       c16       2
    rhs       c17       6
    rhs       c18       5
    rhs       c19       9
    rhs       c20       2
    rhs       c21       9
    rhs       c22       2
    rhs       c23       5
    rhs       c24       5
    rhs       c25       7
    rhs       c26       10
RANGES
BOUNDS
 LO bounds    x[1]      0
 PL bounds    x[1]
 LO bounds    x[2]      0
 PL bounds    x[2]
 LO bounds    x[3]      0
 PL bounds    x[3]
 LO bounds    x[4]      0
 PL bounds    x[4]
 LO bounds    x[5]      0
 PL bounds    x[5]
 LO bounds    x[6]      0
 PL bounds    x[6]
 LO bounds    x[7]      0
 PL bounds    x[7]
 LO bounds    x[8]      0
 PL bounds    x[8]
 LO bounds    x[9]      0
 PL bounds    x[9]
 LO bounds    x[10]     0
 PL bounds    x[10]
 LO bounds    x[11]     0
 PL bounds    x[11]
 LO bounds    x[12]     0
 PL bounds    x[12]
 LO bounds    x[13]     0
 PL bounds    x[13]
 LO bounds    x[14]     0
 PL bounds    x[14]
 LO bounds    x[15]     0
 PL bounds    x[15]
 LO bounds    x[16]     0
 PL bounds    x[16]
 LO bounds    x[17]     0
 PL bounds    x[17]
 LO bounds    x[18]     0
 PL bounds    x[18]
 LO bounds    x[19]     0
 PL bounds    x[19]
 LO bounds    x[20]     0
 PL bounds    x[20]
 LO bounds    x[21]     0
 PL bounds    x[21]
 LO bounds    x[22]     0
 PL bounds    x[22]
 LO bounds    x[23]     0
 PL bounds    x[23]
 LO bounds    x[24]     0
 PL bounds    x[24]
 LO bounds    x[25]     0
 PL bounds    x[25]
ENDATA
